c
c start with comments
c
p cnf 23 16
3 3 -12 -7 0
19 3 1 0
17 10 24 0
23 -15 0
19 11 -14 -21 -6 0
-11 -10 -23 -20 0
-13 14 -13 0
13 -2 0
-23 10 -18 0
-3 25 17 0
-16 15 0
-18 -18 -24 -4 -5 6 0
17 -6 -7 0
12 8 -19 0
-8 2 0
-6 -3 21 21 -3 0